Route #1: 1 27 20 21 26 14 61 62 50 1
Route #2: 1 12 34 45 16 57 1
Route #3: 1 8 17 11 13 29 54 56 33 59 36 1
Route #4: 1 55 30 31 3 46 28 6 1
Route #5: 1 35 9 60 25 37 1
Route #6: 1 49 44 32 47 2 19 5 48 63 53 1
Route #7: 1 22 41 15 51 52 38 7 1
Route #8: 1 4 42 43 10 39 1
Route #9: 1 18 23 58 40 24 1
cost 1791.6334382745379
